121	22	4	93	
10	10	10	10

0	0	0	0	0	0	3	1	2	3
1	8	2	4	4	3	1	5
2	0	8	0	8	9	2	11	12
3	9	3	6	5	9	2	4	19
4	2	1	1	6	1	1	7
5	0	3	0	0	3	2	6	20
6	2	4	6	2	10	2	9	16
7	2	8	6	4	2	2	8	20
8	8	0	7	0	4	2	11	15
9	0	0	10	0	8	1	10
10	10	7	8	0	10	1	12
11	9	0	7	0	6	1	14
12	8	0	0	3	10	3	13	17	18
13	7	3	1	4	6	1	19
14	8	0	3	5	6	2	16	18
15	0	9	10	2	8	1	16
16	9	1	4	0	3	1	17
17	1	8	0	1	4	1	21
18	2	0	10	6	5	1	21
19	7	5	3	10	6	1	21
20	7	3	2	9	8	1	21
21	0	0	0	0	0	0
